robust/generate/spp_dkp_Lefebvre_et_al_2026/src/shortest_path_3_4.kp
46
85

[11.1 8.99 3.53 10.74 4.44 13.28]

[14 72 54 85 84 58]
